data;
set M:= 1 2 3 4 5 6 7 8 9 10 11 12;	
var:		x		SM :=
	1		667		4037.02
	2		479		4202.61
	3		633		4270.62	
	4		647		4333.57
	5		761		4319.97
	6		781		4286.19
	7		797		4236.87
	8		802		4177.71
	9		726		4168.07
	10		835		4074.36
	11		766		4021.15
	12		693		4019.94;
